RT is False
Default write of storage_offers_DA.csv just to have a file (but constraint should be inactive)
Reading model...
...model read.
creating competitive generators file...
...competitive generators recorded.
Loading data...
.. day-ahead data with real-time VRE data read.
Compiling instance...
...instance created.
Creating Offer Mitigation (model will solve as dispatch if TRUE)...
Solving...

Welcome to IBM(R) ILOG(R) CPLEX(R) Interactive Optimizer 12.9.0.0
  with Simplex, Mixed Integer & Barrier Optimizers
5725-A06 5725-A29 5724-Y48 5724-Y49 5724-Y54 5724-Y55 5655-Y21
Copyright IBM Corp. 1988, 2019.  All Rights Reserved.

Type 'help' for a list of available commands.
Type 'help' followed by a command name for more
information on commands.

CPLEX> Logfile 'cplex.log' closed.
Logfile 'C:\Users\llavin\Desktop\test919\logs\tmpck3akr4c.cplex.log' open.
CPLEX> New value for parallel optimization mode: -1
CPLEX> New value for mixed integer optimality gap tolerance: 0.01
CPLEX> New value for integrality tolerance: 1e-09
CPLEX> New value for feasibility tolerance: 0.01
CPLEX> New value for deterministic time limit in ticks: 75000
CPLEX> Problem 'C:\Users\llavin\Desktop\test919\logs\tmpqx7fqd58.pyomo.lp' read.
Read time = 0.05 sec. (3.04 ticks)
CPLEX> Problem name         : C:\Users\llavin\Desktop\test919\logs\tmpqx7fqd58.pyomo.lp
Objective sense      : Minimize
Variables            :   26081  [Nneg: 1,  Box: 21616,  Free: 4464]
Objective nonzeros   :    2496
Linear constraints   :   27515  [Less: 14006,  Greater: 4416,  Equal: 9093]
  Nonzeros           :   89219
  RHS nonzeros       :   12270

Variables            : Min LB: -5000.000        Max UB: 1000000.       
Objective nonzeros   : Min   : 15.73158         Max   : 124.0997       
Linear constraints   :
  Nonzeros           : Min   : 0.8500000        Max   : 3000.000       
  RHS nonzeros       : Min   : 0.4083333        Max   : 5000.000       
CPLEX> CPXPARAM_Parallel                                -1
CPXPARAM_Simplex_Tolerances_Feasibility          0.01
CPXPARAM_DetTimeLimit                            75000
CPXPARAM_MIP_Tolerances_MIPGap                   0.01
CPXPARAM_MIP_Tolerances_Integrality              1.0000000000000001e-09
Parallel mode: opportunistic, using up to 32 threads for concurrent optimization.
Tried aggregator 1 time.
LP Presolve eliminated 21377 rows and 15487 columns.
Aggregator did 747 substitutions.
Reduced LP has 5391 rows, 9847 columns, and 31786 nonzeros.
Presolve time = 0.06 sec. (30.20 ticks)
Symmetry aggregator did 5563 additional substitutions.

Iteration log . . .
Iteration:     1   Dual objective     =             0.000000
Perturbation started.
Iteration:   101   Dual objective     =             0.000000
Iteration:   329   Dual objective     =             1.166435
Iteration:   599   Dual objective     =             1.788912
Iteration:   854   Dual objective     =             1.929091
Iteration:  1058   Dual objective     =             2.041322
Iteration:  1337   Dual objective     =             2.092151
Iteration:  1597   Dual objective     =             2.124013
Iteration:  1820   Dual objective     =        129335.878914
Iteration:  2028   Dual objective     =        480019.398239
Iteration:  2235   Dual objective     =        554688.460988
Iteration:  2422   Dual objective     =        558247.914709
Iteration:  2722   Dual objective     =        560182.041264
Iteration:  3125   Dual objective     =        560296.825262
Removing perturbation.
Dual superbasis not built.
Using devex.

Primal simplex solved model.


Primal simplex - Optimal:  Objective =  5.6029459552e+05
Solution time =    0.20 sec.  Iterations = 1762 (1060)
Deterministic time = 81.00 ticks  (399.02 ticks/sec)

CPLEX> Solution written to file 'C:\Users\llavin\Desktop\test919\logs\tmpfm63vn6e.cplex.sol'.
CPLEX> Exporting results... 
...storage offer mitigation file created
Converting model to MPEC...
...converted
NOTE: initial MIP solve with only storage competitive to get feasible solution
Solving...

Welcome to IBM(R) ILOG(R) CPLEX(R) Interactive Optimizer 12.9.0.0
  with Simplex, Mixed Integer & Barrier Optimizers
5725-A06 5725-A29 5724-Y48 5724-Y49 5724-Y54 5724-Y55 5655-Y21
Copyright IBM Corp. 1988, 2019.  All Rights Reserved.

Type 'help' for a list of available commands.
Type 'help' followed by a command name for more
information on commands.

CPLEX> Logfile 'cplex.log' closed.
Logfile 'C:\Users\llavin\Desktop\test919\logs\tmpmfy6ch6y.cplex.log' open.
CPLEX> New value for parallel optimization mode: -1
CPLEX> New value for mixed integer optimality gap tolerance: 0.01
CPLEX> New value for integrality tolerance: 1e-09
CPLEX> New value for feasibility tolerance: 0.01
CPLEX> New value for deterministic time limit in ticks: 75000
CPLEX> Problem 'C:\Users\llavin\Desktop\test919\logs\tmp5zgw045t.pyomo.lp' read.
Read time = 0.25 sec. (14.78 ticks)
CPLEX> Problem name         : C:\Users\llavin\Desktop\test919\logs\tmp5zgw045t.pyomo.lp
Objective sense      : Maximize
Variables            :   53805  [Nneg: 1,  Box: 22000,  Free: 4464,
                                 Binary: 27340]
Objective nonzeros   :    9028
Linear constraints   :  123205  [Less: 41346,  Greater: 59096,  Equal: 22763]
  Nonzeros           :  291752
  RHS nonzeros       :   67490

Variables            : Min LB: -5000.000        Max UB: 1000000.       
Objective nonzeros   : Min   : 0.4083333        Max   : 2500.000       
Linear constraints   :
  Nonzeros           : Min   : 0.4083333        Max   : 1000000.       
  RHS nonzeros       : Min   : 0.4083333        Max   : 1000000.       
CPLEX> CPXPARAM_Parallel                                -1
CPXPARAM_Simplex_Tolerances_Feasibility          0.01
CPXPARAM_DetTimeLimit                            75000
CPXPARAM_MIP_Tolerances_MIPGap                   0.01
CPXPARAM_MIP_Tolerances_Integrality              1.0000000000000001e-09
Tried aggregator 3 times.
MIP Presolve eliminated 88758 rows and 19082 columns.
MIP Presolve added 3368 rows and 0 columns.
MIP Presolve modified 24788 coefficients.
Aggregator did 12944 substitutions.
Reduced MIP has 24871 rows, 21223 columns, and 70952 nonzeros.
Reduced MIP has 8381 binaries, 0 generals, 0 SOSs, and 0 indicators.
Presolve time = 0.30 sec. (175.97 ticks)
Probing fixed 374 vars, tightened 2825 bounds.
Probing time = 1.20 sec. (880.02 ticks)
Tried aggregator 2 times.
MIP Presolve eliminated 843 rows and 748 columns.
MIP Presolve modified 2212 coefficients.
Aggregator did 40 substitutions.
Reduced MIP has 23988 rows, 20435 columns, and 68398 nonzeros.
Reduced MIP has 8007 binaries, 0 generals, 0 SOSs, and 0 indicators.
Presolve time = 0.09 sec. (66.84 ticks)
Probing fixed 0 vars, tightened 1 bounds.
Probing time = 0.05 sec. (20.51 ticks)
Clique table members: 6158.
MIP emphasis: balance optimality and feasibility.
MIP search method: dynamic search.
Parallel mode: opportunistic, using up to 32 threads.
Root relaxation solution time = 0.41 sec. (312.20 ticks)

        Nodes                                         Cuts/
   Node  Left     Objective  IInf  Best Integer    Best Bound    ItCnt     Gap

      0     0      217.9132  2189                    217.9132     6622         
      0     0      217.8860     3                 Flowcuts: 1     6624         
      0     0      211.7496     2                     Cuts: 2     6626         
      0     2      211.7496     2                 Flowcuts: 1     6626         
Elapsed time = 8.42 sec. (4818.32 ticks, tree = 0.02 MB, solutions = 1)
*    34     9      integral     0      211.7496      211.7362     6646   -0.01%

Flow cuts applied:  2
Gomory fractional cuts applied:  1

Root node processing (before b&c):
  Real time             =    7.39 sec. (4786.20 ticks)
Parallel b&c, 32 threads:
  Real time             =    1.34 sec. (227.59 ticks)
  Sync time (average)   =    0.41 sec.
  Wait time (average)   =    0.00 sec.
                          ------------
Total (root+branch&cut) =    8.73 sec. (5013.80 ticks)

Solution pool: 1 solution saved.

MIP - Integer optimal solution:  Objective =  2.1174963960e+02
Solution time =    8.75 sec.  Iterations = 6700  Nodes = 39
Deterministic time = 5013.95 ticks  (573.02 ticks/sec)

CPLEX> Incumbent solution written to file 'C:\Users\llavin\Desktop\test919\logs\tmp8fj4ms4a.cplex.sol'.
CPLEX> NOTE: no warmstart specified for MIP iteration, default behavior is true
NOTE: resolving with all competitive generators using storage-only solution to warmstart
Solving...

Welcome to IBM(R) ILOG(R) CPLEX(R) Interactive Optimizer 12.9.0.0
  with Simplex, Mixed Integer & Barrier Optimizers
5725-A06 5725-A29 5724-Y48 5724-Y49 5724-Y54 5724-Y55 5655-Y21
Copyright IBM Corp. 1988, 2019.  All Rights Reserved.

Type 'help' for a list of available commands.
Type 'help' followed by a command name for more
information on commands.

CPLEX> Logfile 'cplex.log' closed.
Logfile 'C:\Users\llavin\Desktop\test919\logs\tmpjvxu1qsv.cplex.log' open.
CPLEX> New value for parallel optimization mode: -1
CPLEX> New value for mixed integer optimality gap tolerance: 0.01
CPLEX> New value for integrality tolerance: 1e-09
CPLEX> New value for feasibility tolerance: 0.01
CPLEX> New value for deterministic time limit in ticks: 75000
CPLEX> Problem 'C:\Users\llavin\Desktop\test919\logs\tmpvteltimd.pyomo.lp' read.
Read time = 0.23 sec. (14.81 ticks)
CPLEX> MIP start file 'C:\Users\llavin\Desktop\test919\logs\tmpml2pglqi.cplex.mst' read.
CPLEX> Problem name         : C:\Users\llavin\Desktop\test919\logs\tmpvteltimd.pyomo.lp
Objective sense      : Maximize
Variables            :   54525  [Nneg: 1,  Box: 22720,  Free: 4464,
                                 Binary: 27340]
Objective nonzeros   :    9724
Linear constraints   :  123205  [Less: 41346,  Greater: 59096,  Equal: 22763]
  Nonzeros           :  291752
  RHS nonzeros       :   67490

Variables            : Min LB: -5000.000        Max UB: 1000000.       
Objective nonzeros   : Min   : 0.4083333        Max   : 2500.000       
Linear constraints   :
  Nonzeros           : Min   : 0.4083333        Max   : 1000000.       
  RHS nonzeros       : Min   : 0.4083333        Max   : 1000000.       
CPLEX> CPXPARAM_Parallel                                -1
CPXPARAM_Simplex_Tolerances_Feasibility          0.01
CPXPARAM_DetTimeLimit                            75000
CPXPARAM_MIP_Tolerances_MIPGap                   0.01
CPXPARAM_MIP_Tolerances_Integrality              1.0000000000000001e-09
Warning:  No solution found from 1 MIP starts.
Retaining values of one MIP start for possible repair.
Tried aggregator 3 times.
MIP Presolve eliminated 88758 rows and 19802 columns.
MIP Presolve added 3368 rows and 0 columns.
MIP Presolve modified 24788 coefficients.
Aggregator did 12944 substitutions.
Reduced MIP has 24871 rows, 21223 columns, and 70952 nonzeros.
Reduced MIP has 8381 binaries, 0 generals, 0 SOSs, and 0 indicators.
Presolve time = 0.28 sec. (176.34 ticks)
Probing fixed 374 vars, tightened 2825 bounds.
Probing time = 1.19 sec. (880.02 ticks)
Tried aggregator 2 times.
MIP Presolve eliminated 843 rows and 748 columns.
MIP Presolve modified 2212 coefficients.
Aggregator did 40 substitutions.
Reduced MIP has 23988 rows, 20435 columns, and 68398 nonzeros.
Reduced MIP has 8007 binaries, 0 generals, 0 SOSs, and 0 indicators.
Presolve time = 0.11 sec. (66.85 ticks)
Probing fixed 0 vars, tightened 1 bounds.
Probing time = 0.05 sec. (20.51 ticks)
Clique table members: 6158.
MIP emphasis: balance optimality and feasibility.
MIP search method: dynamic search.
Parallel mode: opportunistic, using up to 32 threads.
Root relaxation solution time = 0.45 sec. (340.61 ticks)

        Nodes                                         Cuts/
   Node  Left     Objective  IInf  Best Integer    Best Bound    ItCnt     Gap

      0     0    53846.2025  2224                  53846.2025     7677         
      0     0    53822.1366   762                   Cuts: 774     8085         
      0     0    53803.0686   567                   Cuts: 695     8361         
      0     0    53801.3378   464                   Cuts: 375     8513         
      0     0    53794.4270   425                   Cuts: 141     8581         
      0     0    53794.4270   422                    Cuts: 85     8589         
      0     0    53793.2550   417                    Cuts: 30     8591         
Repair heuristic found nothing.
      0    32    52074.2432   397                     Cuts: 4     8840         
Elapsed time = 11.84 sec. (6939.80 ticks, tree = 0.05 MB, solutions = 0)
    402    88    infeasible                        53748.2442    11377         
    898   592    52740.6522   393                  53748.2442    22044         
   1417   741    52611.3061   364                  53748.2442    24738         
   2218  1030    52947.6433   359                  53748.2442    29219         
   3191  1436    52201.7387   353                  53748.2442    36148         
   3898  1779    51937.2440   323                  53748.2442    38606         
   4591  3144    52201.7387   316                  53748.2442    45729         
   5425  3300    51737.9609   303                  53748.2442    46464         
   6309  5978    53233.4032   326                  53748.2442    51664         
  10044  8443    51409.3587   244                  53748.2442    55050         
Elapsed time = 29.89 sec. (10041.67 ticks, tree = 97.69 MB, solutions = 0)
* 12137+ 7883                        51673.1937    53748.2442             4.02%
  13970  2176    53606.1736   363    53062.6645    53747.0065    62070    1.29%
* 14255  7873      integral     0    53200.3377    53747.0065    61467    1.03%
  15986  2242    53657.2761   367    53200.3377    53747.0065    63388    1.03%

GUB cover cuts applied:  1
Clique cuts applied:  32
Cover cuts applied:  17
Implied bound cuts applied:  55
Flow cuts applied:  707
Mixed integer rounding cuts applied:  46
Gomory fractional cuts applied:  44

Root node processing (before b&c):
  Real time             =    9.94 sec. (6907.23 ticks)
Parallel b&c, 32 threads:
  Real time             =   29.13 sec. (7534.99 ticks)
  Sync time (average)   =    0.61 sec.
  Wait time (average)   =    0.00 sec.
                          ------------
Total (root+branch&cut) =   39.06 sec. (14442.22 ticks)

Solution pool: 3 solutions saved.

MIP - Integer optimal, tolerance (0.01/1e-06):  Objective =  5.3200337726e+04
Current MIP best bound =  5.3701382925e+04 (gap = 501.045, 0.94%)
Solution time =   39.11 sec.  Iterations = 76495  Nodes = 15989 (3283)
Deterministic time = 14442.38 ticks  (369.29 ticks/sec)

CPLEX> Incumbent solution written to file 'C:\Users\llavin\Desktop\test919\logs\tmpbevrxuvy.cplex.sol'.
CPLEX> Exporting results... 
